
  21    0


   0  11 2 3 4 5 7 8 9 17 18 19 20 
   1   5 16 15 14 10 6 
   3   3 12 11 10 
   2   2 12 10 
   5   2 11 10 
   7   1 11 
   1   1 13 
   4   1 12 
   9   1 10 
   6   1 21
   6   1 21
  10   1 21
   1   1 21
   7   1 21
   8   1 21
   6   1 21
   6   1 21
   8   1 21
   3   1 21
   6   1 21
   0   0 
